p edge 60 568
e 1 6
e 1 10
e 1 11
e 1 15
e 1 20
e 1 23
e 1 25
e 1 28
e 1 29
e 1 32
e 1 33
e 1 35
e 1 38
e 1 41
e 1 42
e 1 43
e 1 47
e 1 48
e 1 49
e 1 55
e 1 57
e 1 58
e 1 60
e 2 3
e 2 5
e 2 9
e 2 11
e 2 14
e 2 17
e 2 24
e 2 27
e 2 28
e 2 29
e 2 37
e 2 38
e 2 42
e 2 48
e 2 49
e 2 53
e 2 55
e 2 60
e 3 7
e 3 9
e 3 10
e 3 14
e 3 15
e 3 19
e 3 21
e 3 23
e 3 25
e 3 27
e 3 28
e 3 30
e 3 31
e 3 39
e 3 40
e 3 46
e 3 51
e 3 54
e 3 57
e 3 59
e 4 5
e 4 7
e 4 12
e 4 16
e 4 19
e 4 20
e 4 24
e 4 27
e 4 28
e 4 30
e 4 33
e 4 38
e 4 39
e 4 41
e 4 51
e 4 53
e 4 54
e 4 56
e 4 57
e 5 9
e 5 10
e 5 11
e 5 12
e 5 13
e 5 17
e 5 24
e 5 26
e 5 29
e 5 31
e 5 35
e 5 37
e 5 38
e 5 41
e 5 44
e 5 53
e 5 57
e 5 60
e 6 11
e 6 19
e 6 23
e 6 24
e 6 30
e 6 33
e 6 41
e 6 47
e 6 51
e 6 53
e 6 57
e 6 58
e 6 60
e 7 13
e 7 19
e 7 22
e 7 23
e 7 25
e 7 28
e 7 30
e 7 32
e 7 34
e 7 37
e 7 40
e 7 44
e 7 47
e 7 49
e 7 52
e 8 11
e 8 16
e 8 18
e 8 28
e 8 30
e 8 31
e 8 34
e 8 36
e 8 37
e 8 51
e 8 55
e 8 57
e 8 59
e 9 12
e 9 16
e 9 19
e 9 20
e 9 21
e 9 23
e 9 27
e 9 40
e 9 44
e 9 49
e 9 53
e 9 54
e 9 55
e 9 56
e 10 11
e 10 13
e 10 14
e 10 21
e 10 28
e 10 32
e 10 35
e 10 39
e 10 43
e 10 44
e 10 47
e 10 51
e 10 52
e 10 54
e 11 12
e 11 14
e 11 18
e 11 19
e 11 21
e 11 22
e 11 24
e 11 26
e 11 27
e 11 31
e 11 32
e 11 34
e 11 35
e 11 37
e 11 39
e 11 45
e 11 48
e 11 49
e 11 50
e 11 53
e 11 54
e 11 55
e 12 14
e 12 16
e 12 17
e 12 23
e 12 25
e 12 26
e 12 27
e 12 31
e 12 38
e 12 39
e 12 40
e 12 41
e 12 47
e 12 52
e 12 53
e 13 16
e 13 17
e 13 19
e 13 31
e 13 33
e 13 39
e 13 43
e 13 46
e 13 50
e 13 51
e 13 52
e 13 53
e 14 15
e 14 16
e 14 19
e 14 21
e 14 23
e 14 24
e 14 28
e 14 31
e 14 33
e 14 34
e 14 37
e 14 38
e 14 46
e 14 51
e 14 57
e 15 17
e 15 19
e 15 21
e 15 26
e 15 27
e 15 28
e 15 32
e 15 33
e 15 37
e 15 38
e 15 40
e 15 41
e 15 45
e 15 50
e 15 51
e 15 53
e 15 57
e 15 60
e 16 17
e 16 18
e 16 22
e 16 24
e 16 25
e 16 26
e 16 31
e 16 36
e 16 37
e 16 39
e 16 40
e 16 51
e 16 54
e 16 55
e 16 57
e 16 59
e 17 23
e 17 25
e 17 28
e 17 33
e 17 41
e 17 45
e 17 49
e 17 54
e 17 59
e 18 19
e 18 21
e 18 22
e 18 26
e 18 31
e 18 34
e 18 36
e 18 41
e 18 42
e 18 43
e 18 44
e 18 45
e 18 47
e 18 52
e 18 55
e 18 58
e 18 59
e 19 22
e 19 23
e 19 24
e 19 27
e 19 35
e 19 36
e 19 40
e 19 44
e 19 45
e 19 48
e 19 54
e 19 56
e 20 21
e 20 23
e 20 26
e 20 27
e 20 29
e 20 31
e 20 32
e 20 33
e 20 37
e 20 38
e 20 39
e 20 40
e 20 43
e 20 44
e 20 51
e 20 53
e 20 56
e 20 60
e 21 22
e 21 23
e 21 27
e 21 30
e 21 35
e 21 43
e 21 44
e 21 45
e 21 50
e 21 52
e 21 55
e 21 56
e 21 60
e 22 25
e 22 40
e 22 42
e 22 53
e 22 54
e 22 56
e 22 60
e 23 25
e 23 30
e 23 32
e 23 35
e 23 37
e 23 38
e 23 39
e 23 45
e 23 47
e 23 52
e 24 29
e 24 32
e 24 33
e 24 36
e 24 38
e 24 44
e 24 46
e 24 48
e 24 50
e 24 54
e 24 56
e 24 58
e 25 27
e 25 30
e 25 32
e 25 34
e 25 39
e 25 41
e 25 42
e 25 48
e 25 49
e 25 56
e 26 31
e 26 33
e 26 34
e 26 35
e 26 39
e 26 49
e 26 50
e 26 52
e 26 57
e 26 58
e 27 28
e 27 29
e 27 30
e 27 31
e 27 33
e 27 34
e 27 37
e 27 50
e 27 53
e 27 54
e 27 58
e 28 29
e 28 30
e 28 31
e 28 32
e 28 37
e 28 49
e 28 50
e 28 51
e 28 52
e 28 53
e 28 57
e 29 31
e 29 33
e 29 38
e 29 41
e 29 42
e 29 43
e 29 50
e 29 54
e 29 57
e 30 34
e 30 42
e 30 46
e 30 50
e 30 52
e 30 54
e 30 55
e 30 56
e 30 58
e 31 32
e 31 33
e 31 37
e 31 39
e 31 45
e 31 46
e 31 50
e 31 55
e 31 57
e 31 60
e 32 34
e 32 36
e 32 37
e 32 39
e 32 46
e 32 47
e 32 50
e 32 52
e 32 53
e 32 54
e 32 55
e 32 58
e 32 60
e 33 34
e 33 35
e 33 37
e 33 39
e 33 50
e 33 51
e 33 53
e 33 55
e 33 58
e 34 35
e 34 39
e 34 41
e 34 44
e 34 45
e 34 48
e 34 51
e 34 53
e 34 59
e 35 38
e 35 42
e 35 43
e 35 50
e 35 53
e 35 54
e 35 56
e 35 57
e 35 60
e 36 39
e 36 41
e 36 53
e 36 57
e 36 60
e 37 39
e 37 44
e 37 45
e 37 47
e 37 50
e 37 52
e 37 60
e 38 42
e 38 49
e 38 53
e 38 56
e 38 57
e 39 42
e 39 44
e 39 50
e 39 55
e 39 59
e 40 42
e 40 43
e 40 44
e 40 47
e 40 49
e 40 50
e 40 53
e 40 54
e 40 55
e 40 56
e 40 57
e 41 43
e 41 44
e 41 46
e 41 47
e 41 51
e 41 52
e 41 54
e 41 57
e 41 58
e 42 43
e 42 45
e 42 46
e 42 47
e 42 49
e 42 55
e 42 56
e 42 59
e 42 60
e 43 44
e 43 47
e 43 48
e 43 49
e 43 54
e 44 46
e 44 56
e 44 59
e 45 47
e 45 48
e 45 49
e 45 50
e 45 51
e 45 57
e 46 51
e 46 54
e 46 57
e 46 59
e 47 51
e 47 52
e 47 53
e 47 59
e 47 60
e 48 53
e 48 54
e 48 55
e 48 58
e 48 59
e 49 55
e 49 58
e 50 56
e 50 57
e 51 52
e 51 60
e 52 55
e 52 57
e 52 58
e 53 59
e 54 60
e 55 56
e 55 58
e 55 60
e 57 59
e 59 60
